20J6M/DAT/20J6MUNL-16.dat
20 6
33.1551 33.1551
10.5905 10.5905
1.4538 1.4538
18.7235 18.7235
41.39 41.39
22.752 22.752
28.5093 28.5093
35.2013 35.2013
29.8075 29.8075
11.4778 11.4778
26.7586 26.7586
33.4443 33.4443
26.2251 26.2251
13.0893 13.0893
22.9005 22.9005
22.014 22.014
27.6025 27.6025
21.5597 21.5597
9.6127 9.6127
18.72 18.72
454.9875