20J6M/SOL/20J6MUNL-16.sol
solution status: optimal solution found
objective value:                             75.83125
x#1#5                                               1 	(obj:0)
x#2#4                                               1 	(obj:0)
x#3#3                                               1 	(obj:0)
x#4#4                                               1 	(obj:0)
x#5#6                                               1 	(obj:0)
x#6#3                               0.745813554852321 	(obj:0)
x#6#4                               0.254186445147679 	(obj:0)
x#7#1                                               1 	(obj:0)
x#8#5                              0.0215915321309158 	(obj:0)
x#8#6                               0.978408467869084 	(obj:0)
x#9#1                               0.715782940535101 	(obj:0)
x#9#5                               0.284217059464899 	(obj:0)
x#10#3                                              1 	(obj:0)
x#11#2                                              1 	(obj:0)
x#12#5                                              1 	(obj:0)
x#13#2                              0.936351052998845 	(obj:0)
x#13#3                             0.0636489470011549 	(obj:0)
x#14#3                                              1 	(obj:0)
x#15#2                                              1 	(obj:0)
x#16#4                                              1 	(obj:0)
x#17#1                              0.941445521239017 	(obj:0)
x#17#2                             0.0585544787609833 	(obj:0)
x#18#3                                              1 	(obj:0)
x#19#3                                              1 	(obj:0)
x#20#4                                              1 	(obj:0)
z                                            75.83125 	(obj:1)
